17	4
29	24	34	23	
0	0	0	0	0	3	2	3	4	
10	0	3	0	6	3	5	7	12	
8	7	0	4	7	3	5	6	14	
5	3	1	7	9	3	5	6	17	
2	1	5	7	8	2	17	17	
125	5	3	9	5	3	8	9	17	
250	1	3	8	7	2	8	14	
75	4	0	1	7	3	11	15	17	
150	10	9	5	10	1	10	
100	1	0	0	6	3	13	16	17	
100	10	0	7	4	2	17	17	
250	2	7	10	1	3	17	17	17	
2	7	1	0	0	3	17	17	17	
2	2	9	7	10	3	16	17	17	
1	0	9	10	10	3	17	17	17	
10	3	4	9	0	1	17	
0	0	0	0	0	0	
